
Gurobi 13.0.2 (win64) logging started Thu Jul 23 04:55:23 2026

Set parameter LogFile to value "E:\codes\ExactEBRP\results\gf_cplex_equivalent_gurobi_replica_round28\runs\stage1__moderate_seed4301__c3_replica__300s\external\native_logs\R.0.0.0.0.1.0.1_lp.gurobi.log"
Gurobi Optimizer version 13.0.2 build v13.0.2rc1 (win64 - Windows 10.0 (19045.2))

CPU model: 12th Gen Intel(R) Core(TM) i7-12700KF, instruction set [SSE2|AVX|AVX2]
Thread count: 12 physical cores, 20 logical processors, using up to 1 threads

Non-default parameters:
TimeLimit  254.1431429
MIPGap  0
MIPGapAbs  0
LogToConsole  0
Threads  1

Optimize a model with 11911 rows, 3376 columns and 67353 nonzeros (Min)
Model fingerprint: 0xdacaea6f
Model has 21 linear objective coefficients
Coefficient statistics:
  Matrix range     [8e-04, 2e+04]
  Objective range  [8e-03, 1e+00]
  Bounds range     [8e-04, 5e+01]
  RHS range        [8e-04, 5e+04]

Presolve removed 573 rows and 104 columns
Presolve time: 0.04s
Presolved: 11338 rows, 3444 columns, 65174 nonzeros

Iteration    Objective       Primal Inf.    Dual Inf.      Time
       0    7.5304887e-04   1.071152e+02   0.000000e+00      0s
    1606    3.9810229e-03   0.000000e+00   0.000000e+00      0s

Solved in 1606 iterations and 0.13 seconds (0.38 work units)
Optimal objective  3.981022916e-03

User-callback calls 1752, time in user-callback 0.00 sec
